pure_adt/tip2015_nat_alt_mul_comm.smt2
(set-logic HORN)
(declare-datatypes ((Nat_259 0)) (((zero_40 ) (succ_40 (p_119 Nat_259)))))
(declare-fun diseqNat_259 (Nat_259 Nat_259) Bool)
(declare-fun p_120 (Nat_259 Nat_259) Bool)
(declare-fun iszero_40 (Nat_259) Bool)
(declare-fun issucc_40 (Nat_259) Bool)
(assert (forall ((x_21928 Nat_259))
	(p_120 x_21928 (succ_40 x_21928))))
(assert (iszero_40 zero_40))
(assert (forall ((x_21930 Nat_259))
	(issucc_40 (succ_40 x_21930))))
(assert (forall ((x_21931 Nat_259))
	(diseqNat_259 zero_40 (succ_40 x_21931))))
(assert (forall ((x_21932 Nat_259))
	(diseqNat_259 (succ_40 x_21932) zero_40)))
(assert (forall ((x_21933 Nat_259) (x_21934 Nat_259))
	(=> (diseqNat_259 x_21933 x_21934)
	    (diseqNat_259 (succ_40 x_21933) (succ_40 x_21934)))))
(declare-fun plus_36 (Nat_259 Nat_259 Nat_259) Bool)
(assert (forall ((x_21907 Nat_259) (z_821 Nat_259) (y_820 Nat_259))
	(=> (plus_36 x_21907 z_821 y_820)
	    (plus_36 (succ_40 x_21907) (succ_40 z_821) y_820))))
(assert (forall ((x_21908 Nat_259))
	(plus_36 x_21908 zero_40 x_21908)))
(declare-fun altmul_1 (Nat_259 Nat_259 Nat_259) Bool)
(assert (forall ((x_21909 Nat_259) (x_21910 Nat_259) (x_21911 Nat_259) (x_21912 Nat_259) (x_21900 Nat_259) (z_822 Nat_259))
	(=>	(and (altmul_1 x_21910 z_822 x_21900)
			(plus_36 x_21911 (succ_40 zero_40) x_21910)
			(plus_36 x_21912 x_21911 z_822)
			(plus_36 x_21909 x_21912 x_21900))
		(altmul_1 x_21909 (succ_40 z_822) (succ_40 x_21900)))))
(assert (forall ((z_822 Nat_259))
	(altmul_1 zero_40 (succ_40 z_822) zero_40)))
(assert (forall ((y_821 Nat_259))
	(altmul_1 zero_40 zero_40 y_821)))
(assert (forall ((x_21916 Nat_259) (x_21917 Nat_259) (x_21901 Nat_259) (y_822 Nat_259))
	(=>	(and true
			(diseqNat_259 x_21916 x_21917)
			(altmul_1 x_21916 x_21901 y_822)
			(altmul_1 x_21917 y_822 x_21901))
		false)))
(assert (forall ((x_21918 Nat_259) (x_21919 Nat_259) (x_21920 Nat_259) (x_21921 Nat_259) (x_21902 Nat_259) (y_823 Nat_259) (z_823 Nat_259))
	(=>	(and true
			(diseqNat_259 x_21919 x_21921)
			(plus_36 x_21918 y_823 z_823)
			(plus_36 x_21919 x_21902 x_21918)
			(plus_36 x_21920 x_21902 y_823)
			(plus_36 x_21921 x_21920 z_823))
		false)))
(assert (forall ((x_21922 Nat_259) (x_21923 Nat_259) (x_21903 Nat_259) (y_824 Nat_259))
	(=>	(and true
			(diseqNat_259 x_21922 x_21923)
			(plus_36 x_21922 x_21903 y_824)
			(plus_36 x_21923 y_824 x_21903))
		false)))
(assert (forall ((x_21924 Nat_259) (x_21904 Nat_259))
	(=>	(and true
			(diseqNat_259 x_21924 x_21904)
			(plus_36 x_21924 x_21904 zero_40))
		false)))
(assert (forall ((x_21925 Nat_259) (x_21905 Nat_259))
	(=>	(and true
			(diseqNat_259 x_21925 x_21905)
			(plus_36 x_21925 zero_40 x_21905))
		false)))
(check-sat)
